c File: instances/14_0.25_3.col
c
c Description: Random graph of size 14 vertices and P(0.25) of edges between any two vertices.
p col 14 91
e 1 5
e 1 10
e 1 14
e 2 5
e 2 7
e 3 6
e 3 8
e 4 6
e 4 13
e 5 6
e 5 7
e 5 10
e 5 11
e 6 10
e 6 11
e 6 12
e 7 8
e 7 11
e 7 13
e 9 13
e 9 14
e 10 12
e 12 14